25° run output:
{
    "Function": "kroB300.tsp",
    "Problem dimension": [
        86,
        195,
        205,
        111,
        208,
        241,
        36,
        168,
        209,
        227,
        148,
        269,
        244,
        252,
        235,
        63,
        186,
        236,
        62,
        206,
        155,
        202,
        212,
        146,
        42,
        268,
        231,
        157,
        122,
        53,
        276,
        294,
        259,
        26,
        84,
        218,
        20,
        24,
        207,
        274,
        191,
        147,
        219,
        136,
        16,
        197,
        193,
        273,
        64,
        114,
        133,
        283,
        184,
        265,
        12,
        108,
        119,
        288,
        292,
        237,
        44,
        285,
        194,
        102,
        249,
        171,
        177,
        78,
        52,
        38,
        281,
        2,
        9,
        97,
        173,
        278,
        145,
        196,
        45,
        188,
        74,
        149,
        165,
        275,
        183,
        77,
        125,
        30,
        230,
        190,
        210,
        126,
        295,
        106,
        68,
        67,
        156,
        247,
        107,
        141,
        6,
        83,
        290,
        229,
        85,
        287,
        286,
        167,
        60,
        59,
        181,
        144,
        174,
        94,
        121,
        161,
        101,
        134,
        17,
        105,
        56,
        293,
        98,
        90,
        110,
        297,
        143,
        13,
        213,
        117,
        3,
        130,
        282,
        151,
        189,
        4,
        242,
        226,
        120,
        82,
        216,
        224,
        99,
        25,
        291,
        14,
        182,
        76,
        15,
        8,
        29,
        73,
        245,
        65,
        58,
        69,
        89,
        70,
        34,
        220,
        164,
        262,
        51,
        253,
        11,
        7,
        75,
        211,
        251,
        27,
        72,
        299,
        96,
        166,
        200,
        31,
        256,
        61,
        178,
        243,
        201,
        250,
        172,
        93,
        228,
        71,
        258,
        140,
        153,
        170,
        215,
        139,
        257,
        261,
        214,
        234,
        113,
        138,
        233,
        92,
        135,
        137,
        0,
        221,
        260,
        118,
        199,
        263,
        48,
        158,
        238,
        142,
        159,
        152,
        180,
        57,
        204,
        255,
        55,
        80,
        112,
        187,
        116,
        169,
        66,
        115,
        23,
        95,
        154,
        267,
        88,
        129,
        18,
        54,
        163,
        272,
        124,
        192,
        87,
        232,
        35,
        43,
        40,
        289,
        266,
        240,
        79,
        131,
        39,
        198,
        225,
        284,
        104,
        270,
        19,
        271,
        103,
        222,
        91,
        248,
        33,
        223,
        160,
        298,
        46,
        32,
        127,
        81,
        296,
        132,
        185,
        246,
        254,
        21,
        22,
        10,
        28,
        217,
        128,
        175,
        49,
        50,
        47,
        279,
        123,
        176,
        162,
        150,
        203,
        109,
        264,
        1,
        41,
        5,
        100,
        239,
        37,
        277,
        179,
        280
    ],
    "Global Optimum": 0,
    "Algorithm": "Genetic algorithm",
    "Parameters": {
        "population": 30,
        "offspring": 30,
        "mutation probability": 0.0033333333333333335,
        "crossover probability": 0.9
    },
    "Fitness": 255152,
    "Solution": [
        86,
        195,
        205,
        111,
        208,
        241,
        36,
        168,
        209,
        227,
        148,
        269,
        244,
        252,
        235,
        63,
        186,
        236,
        62,
        206,
        155,
        202,
        212,
        146,
        42,
        268,
        231,
        157,
        122,
        53,
        276,
        294,
        259,
        26,
        84,
        218,
        20,
        24,
        207,
        274,
        191,
        147,
        219,
        136,
        16,
        197,
        193,
        273,
        64,
        114,
        133,
        283,
        184,
        265,
        12,
        108,
        119,
        288,
        292,
        237,
        44,
        285,
        194,
        102,
        249,
        171,
        177,
        78,
        52,
        38,
        281,
        2,
        9,
        97,
        173,
        278,
        145,
        196,
        45,
        188,
        74,
        149,
        165,
        275,
        183,
        77,
        125,
        30,
        230,
        190,
        210,
        126,
        295,
        106,
        68,
        67,
        156,
        247,
        107,
        141,
        6,
        83,
        290,
        229,
        85,
        287,
        286,
        167,
        60,
        59,
        181,
        144,
        174,
        94,
        121,
        161,
        101,
        134,
        17,
        105,
        56,
        293,
        98,
        90,
        110,
        297,
        143,
        13,
        213,
        117,
        3,
        130,
        282,
        151,
        189,
        4,
        242,
        226,
        120,
        82,
        216,
        224,
        99,
        25,
        291,
        14,
        182,
        76,
        15,
        8,
        29,
        73,
        245,
        65,
        58,
        69,
        89,
        70,
        34,
        220,
        164,
        262,
        51,
        253,
        11,
        7,
        75,
        211,
        251,
        27,
        72,
        299,
        96,
        166,
        200,
        31,
        256,
        61,
        178,
        243,
        201,
        250,
        172,
        93,
        228,
        71,
        258,
        140,
        153,
        170,
        215,
        139,
        257,
        261,
        214,
        234,
        113,
        138,
        233,
        92,
        135,
        137,
        0,
        221,
        260,
        118,
        199,
        263,
        48,
        158,
        238,
        142,
        159,
        152,
        180,
        57,
        204,
        255,
        55,
        80,
        112,
        187,
        116,
        169,
        66,
        115,
        23,
        95,
        154,
        267,
        88,
        129,
        18,
        54,
        163,
        272,
        124,
        192,
        87,
        232,
        35,
        43,
        40,
        289,
        266,
        240,
        79,
        131,
        39,
        198,
        225,
        284,
        104,
        270,
        19,
        271,
        103,
        222,
        91,
        248,
        33,
        223,
        160,
        298,
        46,
        32,
        127,
        81,
        296,
        132,
        185,
        246,
        254,
        21,
        22,
        10,
        28,
        217,
        128,
        175,
        49,
        50,
        47,
        279,
        123,
        176,
        162,
        150,
        203,
        109,
        264,
        1,
        41,
        5,
        100,
        239,
        37,
        277,
        179,
        280
    ],
    "Nb of functions evaluations": 400020,
    "Computational time in seconds": 741.8109660148621,
    "Stopping criterion in evaluations": 400000
}